40
3 1 2
4 0 6
5 2 4
5 3 4
6 0 2
6 3 5
7 2 1
7 3 6
7 6 3
8 0 2
8 2 1
8 3 5
8 5 3
8 7 5
9 1 3
9 2 5
9 5 2
9 8 1
10 1 5
10 3 6
10 5 1
10 8 3
11 0 4
11 3 5
11 5 5
11 7 6
11 8 3
11 9 6
12 0 5
12 1 2
12 3 4
12 4 5
12 5 1
12 6 5
12 9 2
12 10 2
12 11 5
13 1 6
13 2 6
13 3 2
13 4 4
13 5 5
13 6 2
14 0 2
14 2 4
14 4 2
14 5 1
14 6 1
14 8 3
14 9 2
14 10 3
14 11 1
15 0 3
15 1 5
15 2 4
15 3 2
15 5 4
15 7 4
15 9 3
15 11 1
15 13 2
16 1 3
16 3 1
16 4 3
16 5 3
16 9 4
16 11 3
16 12 1
16 13 2
16 14 6
16 15 1
17 1 6
17 3 3
17 5 2
17 7 2
17 10 5
17 12 6
17 13 5
17 16 3
18 3 1
18 10 4
18 13 4
18 14 1
18 15 5
18 16 5
19 3 2
19 4 6
19 5 1
19 8 2
19 9 6
19 10 3
19 14 3
19 15 5
19 18 3
20 2 2
20 3 3
20 8 2
20 11 5
20 13 4
20 15 6
20 18 3
21 0 2
21 1 2
21 4 4
21 5 3
21 11 4
21 12 1
21 14 5
21 16 2
21 17 3
21 18 6
21 19 6
21 20 5
22 0 4
22 3 3
22 4 6
22 6 1
22 7 1
22 9 2
22 12 1
22 14 5
22 18 1
22 19 4
22 20 6
22 21 5
23 0 6
23 1 6
23 2 4
23 3 6
23 4 6
23 5 6
23 6 5
23 8 1
23 12 5
23 13 1
23 17 1
23 18 5
23 19 6
23 20 2
23 21 4
23 22 1
24 1 1
24 2 5
24 4 6
24 7 6
24 8 3
24 9 5
24 10 2
24 12 3
24 13 2
24 15 4
24 16 5
24 18 5
24 19 3
24 20 2
24 21 4
24 22 5
24 23 5
25 1 2
25 2 3
25 4 3
25 6 5
25 7 4
25 8 5
25 9 5
25 10 6
25 11 3
25 13 4
25 14 4
25 15 3
25 16 1
25 18 2
25 19 6
25 20 3
25 21 6
25 23 6
25 24 1
26 0 5
26 1 4
26 6 3
26 7 4
26 12 5
26 15 5
26 17 5
26 18 4
26 20 6
26 21 1
26 24 3
27 0 4
27 1 6
27 2 1
27 3 5
27 4 6
27 7 1
27 9 6
27 10 4
27 11 1
27 12 3
27 13 1
27 14 5
27 16 5
27 18 1
27 19 3
27 20 1
27 21 5
27 25 3
27 26 3
28 1 6
28 2 4
28 4 6
28 11 3
28 15 3
28 17 1
28 19 5
28 20 4
28 21 2
28 24 4
28 26 5
28 27 4
29 5 3
29 7 4
29 8 3
29 11 5
29 12 1
29 14 6
29 16 1
29 17 5
29 18 1
29 20 3
29 22 3
29 25 4
29 26 4
29 28 4
30 0 6
30 1 2
30 2 3
30 4 3
30 5 2
30 6 6
30 7 1
30 8 4
30 9 6
30 11 5
30 12 2
30 13 4
30 15 5
30 19 3
30 21 5
30 22 5
30 23 4
30 25 1
30 27 3
30 28 2
30 29 6
31 1 5
31 2 4
31 6 1
31 9 2
31 10 3
31 11 5
31 12 3
31 13 2
31 14 6
31 15 2
31 16 1
31 17 1
31 20 1
31 21 3
31 22 6
31 23 6
31 25 3
31 26 3
31 27 4
32 1 6
32 3 2
32 5 6
32 7 6
32 8 1
32 13 4
32 14 2
32 17 5
32 18 2
32 19 5
32 21 2
32 25 3
32 27 5
32 28 4
32 29 6
32 30 3
32 31 5
33 2 1
33 4 5
33 5 2
33 7 5
33 9 6
33 10 1
33 13 4
33 14 5
33 15 5
33 16 1
33 19 2
33 20 2
33 21 6
33 25 5
33 26 3
33 28 1
33 30 4
34 0 1
34 1 1
34 3 1
34 6 3
34 7 5
34 8 3
34 11 2
34 12 2
34 13 5
34 15 5
34 16 1
34 19 1
34 20 4
34 21 4
34 24 4
34 29 3
34 30 5
34 32 1
34 33 5
35 0 4
35 1 4
35 4 6
35 7 3
35 8 3
35 11 6
35 15 5
35 17 3
35 19 1
35 20 1
35 21 6
35 22 2
35 23 2
35 29 2
35 31 4
35 33 3
35 34 6
36 1 1
36 2 4
36 3 4
36 5 5
36 6 4
36 7 4
36 8 6
36 9 2
36 11 4
36 12 5
36 15 4
36 18 2
36 19 1
36 20 4
36 21 1
36 22 4
36 25 1
36 29 1
36 30 6
36 31 5
36 32 1
36 33 6
36 34 5
36 35 3
37 2 3
37 3 5
37 4 4
37 5 2
37 10 5
37 13 6
37 14 1
37 17 6
37 18 6
37 19 1
37 23 1
37 27 5
37 29 3
37 30 1
37 31 4
37 32 4
37 33 5
37 35 3
38 2 1
38 5 2
38 8 3
38 10 3
38 12 1
38 13 4
38 14 6
38 15 6
38 16 5
38 18 5
38 20 3
38 33 4
38 35 2
38 36 1
39 1 4
39 2 2
39 3 2
39 5 2
39 6 1
39 9 2
39 10 4
39 14 1
39 20 4
39 23 6
39 24 3
39 25 6
39 27 6
39 28 5
39 29 5
39 31 2
39 32 6
39 34 1
39 35 5
39 36 6
39 37 3
39 38 4
